10  5
  0  79  1  67  2  10  3  48  4  52
  0  40  1  40  2  57  3  21  4  54
  0  48  1  93  2  49  3  11  4  79
  0  16  1  23  2  19  3  2  4  38
  0  38  1  90  2  57  3  73  4  3
  0  76  1  13  2  99  3  98  4  55
  0  73  1  85  2  40  3  20  4  85
  0  34  1  6  2  27  3  53  4  21
  0  38  1  6  2  35  3  28  4  44
  0  32  1  11  2  11  3  34  4  27
